1964.37
0 74 28 64 24 12 39 32 58 0
0 4 53 72 55 25 3 43 18 51 49 67 0
0 26 21 38 16 50 33 7 0
0 1 61 13 48 37 20 60 69 22 63 30 29 0
0 23 44 59 34 5 56 68 27 66 0
0 52 19 8 15 47 45 65 75 41 42 17 0
0 2 31 9 46 14 62 73 71 70 0
0 11 54 57 35 10 40 6 36 0
